c CNF file corresponding to a (partial) station packing problem.
p cnf 6725 184
1 2 3 4 5 6 7 8 9 10 11 12 13 14 0
-1 -2 0
-1 -3 0
-1 -4 0
-1 -5 0
-1 -6 0
-1 -7 0
-1 -8 0
-1 -9 0
-1 -10 0
-1 -11 0
-1 -12 0
-1 -13 0
-1 -14 0
-2 -3 0
-2 -4 0
-2 -5 0
-2 -6 0
-2 -7 0
-2 -8 0
-2 -9 0
-2 -10 0
-2 -11 0
-2 -12 0
-2 -13 0
-2 -14 0
-3 -4 0
-3 -5 0
-3 -6 0
-3 -7 0
-3 -8 0
-3 -9 0
-3 -10 0
-3 -11 0
-3 -12 0
-3 -13 0
-3 -14 0
-4 -5 0
-4 -6 0
-4 -7 0
-4 -8 0
-4 -9 0
-4 -10 0
-4 -11 0
-4 -12 0
-4 -13 0
-4 -14 0
-5 -6 0
-5 -7 0
-5 -8 0
-5 -9 0
-5 -10 0
-5 -11 0
-5 -12 0
-5 -13 0
-5 -14 0
-6 -7 0
-6 -8 0
-6 -9 0
-6 -10 0
-6 -11 0
-6 -12 0
-6 -13 0
-6 -14 0
-7 -8 0
-7 -9 0
-7 -10 0
-7 -11 0
-7 -12 0
-7 -13 0
-7 -14 0
-8 -9 0
-8 -10 0
-8 -11 0
-8 -12 0
-8 -13 0
-8 -14 0
-9 -10 0
-9 -11 0
-9 -12 0
-9 -13 0
-9 -14 0
-10 -11 0
-10 -12 0
-10 -13 0
-10 -14 0
-11 -12 0
-11 -13 0
-11 -14 0
-12 -13 0
-12 -14 0
-13 -14 0
6712 6713 6714 6715 6716 6717 6718 6719 6720 6721 6722 6723 6724 6725 0
-6712 -6713 0
-6712 -6714 0
-6712 -6715 0
-6712 -6716 0
-6712 -6717 0
-6712 -6718 0
-6712 -6719 0
-6712 -6720 0
-6712 -6721 0
-6712 -6722 0
-6712 -6723 0
-6712 -6724 0
-6712 -6725 0
-6713 -6714 0
-6713 -6715 0
-6713 -6716 0
-6713 -6717 0
-6713 -6718 0
-6713 -6719 0
-6713 -6720 0
-6713 -6721 0
-6713 -6722 0
-6713 -6723 0
-6713 -6724 0
-6713 -6725 0
-6714 -6715 0
-6714 -6716 0
-6714 -6717 0
-6714 -6718 0
-6714 -6719 0
-6714 -6720 0
-6714 -6721 0
-6714 -6722 0
-6714 -6723 0
-6714 -6724 0
-6714 -6725 0
-6715 -6716 0
-6715 -6717 0
-6715 -6718 0
-6715 -6719 0
-6715 -6720 0
-6715 -6721 0
-6715 -6722 0
-6715 -6723 0
-6715 -6724 0
-6715 -6725 0
-6716 -6717 0
-6716 -6718 0
-6716 -6719 0
-6716 -6720 0
-6716 -6721 0
-6716 -6722 0
-6716 -6723 0
-6716 -6724 0
-6716 -6725 0
-6717 -6718 0
-6717 -6719 0
-6717 -6720 0
-6717 -6721 0
-6717 -6722 0
-6717 -6723 0
-6717 -6724 0
-6717 -6725 0
-6718 -6719 0
-6718 -6720 0
-6718 -6721 0
-6718 -6722 0
-6718 -6723 0
-6718 -6724 0
-6718 -6725 0
-6719 -6720 0
-6719 -6721 0
-6719 -6722 0
-6719 -6723 0
-6719 -6724 0
-6719 -6725 0
-6720 -6721 0
-6720 -6722 0
-6720 -6723 0
-6720 -6724 0
-6720 -6725 0
-6721 -6722 0
-6721 -6723 0
-6721 -6724 0
-6721 -6725 0
-6722 -6723 0
-6722 -6724 0
-6722 -6725 0
-6723 -6724 0
-6723 -6725 0
-6724 -6725 0
